N = 11;
H = 6;
T = 2;

avail = array3d(1..N, 1..H, 1..T, [9, 8, 4, 4, 0, 7, 5, 1, 7, 4, 1, 3, 10, 6, 8, 8, 3, 6, 10, 5, 4, 2, 5, 5, 3, 10, 6, 9, 0, 6, 7, 3, 4, 9, 0, 7, 6, 2, 10, 10, 2, 9, 2, 5, 10, 7, 3, 4, 10, 4, 3, 9, 6, 6, 1, 2, 9, 3, 0, 10, 10, 3, 7, 8, 10, 7, 3, 1, 7, 2, 0, 7, 1, 5, 7, 7, 9, 2, 3, 8, 2, 3, 2, 1, 5, 8, 0, 7, 6, 4, 2, 0, 0, 10, 7, 9, 6, 2, 7, 9, 5, 1, 3, 6, 9, 0, 1, 4, 2, 6, 9, 5, 7, 3, 7, 7, 7, 5, 9, 9, 10, 9, 9, 0, 4, 0, 8, 3, 2, 10, 5, 7]);

r = array2d(1..H, 1..T, [4, 5, 2, 0, 4, 0, 3, 2, 4, 0, 2, 4]);
